333 345 
363 375 
393 405 
423 435 
453 465 
483 495 
513 525 
543 555 
573 585 
603 615 
633 645 
663 675 
693 705 
723 735 
753 765 
783 795 
813 825 
843 855 
873 885 
903 915 
933 945 
963 975 
993 1005 
1023 1035 
1053 1065 
1083 1095 
1113 1125 
1143 1155 
1173 1185 
1203 1215 
1233 1245 
1263 1275 
1293 1305 
1323 1335 
1353 1365 
1383 1395 
1413 1425 
1443 1455 
1473 1485 